7 100 488
0 47 5
1 1 19 20 16
2 97 35 14 27
3 23 79 5 50
4 77 87 11 39
5 3 9 22 73
6 5 27 25 17
7 41 53 2 2
8 51 87 18 17
9 67 73 10 45
10 89 45 26 29
11 71 99 14 55
12 11 1 22 78
13 85 85 9 23
14 57 11 11 65
15 57 85 18 21
16 71 33 24 14
17 61 13 15 67
18 39 15 23 69
19 13 59 16 41
20 43 99 14 31
21 87 73 8 57
22 11 37 5 40
23 21 11 12 40
24 77 81 8 49
25 3 63 16 58
26 47 95 12 18
27 53 75 15 37
28 73 55 9 56
29 81 71 2 24
30 89 75 10 44
31 11 9 2 55
32 27 37 3 34
33 95 59 20 75
34 63 63 3 66
35 37 21 13 26
36 33 47 25 26
37 23 63 23 17
38 13 55 8 71
39 47 93 16 69
40 45 43 9 28
41 83 7 14 53
42 69 91 4 58
43 13 11 13 76
44 37 15 7 10
45 53 59 16 4
46 97 83 18 56
47 75 31 16 6
